c Random Network
p min 10 20
n 1 1
n 10 -1
c Transformed from a max-flow problem.
a 	 1	7	0	17	0
a 	 4	3	0	41	0
a 	 2	1	0	26	0
a 	 6	2	0	14	0
a 	 6	4	0	30	0
a 	 2	8	0	1	0
a 	 1	9	0	24	0
a 	 9	1	0	28	0
a 	 5	1	0	32	0
a 	 3	1	0	42	0
a 	 7	10	0	43	0
a 	 10	7	0	22	0
a 	 8	1	0	21	0
a 	 4	5	0	26	0
a 	 3	5	0	37	0
a 	 1	2	0	23	0
a 	 6	7	0	1	0
a 	 9	6	0	44	0
a 	 2	3	0	12	0
a 	 4	6	0	2	0
